InboundTrucks  = 8;
OutboundTrucks = 5;
InboundDoors   = 2;
OutboundDoors  = 1;
ReleaseTime    = [18,6,17,11,14,1,21,16];
UnloadTime     = [5,3,7,11,3,2,4,21];
LoadTime       = [4,7,16,7,4];
TransferTime   = [| 15,1,10,0,0 | 2,0,0,0,0 | 0,0,2,0,1 | 5,0,0,0,0 | 0,0,2,0,0 | 3,0,0,0,0 | 0,0,3,0,6 | 0,0,0,2,0 |];
